NAME: rand_1/map7_178
TYPE: TSP
COMMENT: autogenerated using a wonderful map creator
DIMENSION: 208
EDGE_WEIGHT_TYPE: EUC_2D
NODE_COORD_SECTION
1 2.0 9.0
2 61.0 16.0
3 44.0 61.0
4 63.0 24.0
5 33.0 2.0
6 48.0 63.0
7 46.0 62.0
8 45.0 63.0
9 43.0 1.0
10 39.0 1.0
11 41.0 61.0
12 43.0 2.0
13 38.0 1.0
14 2.0 13.0
15 2.0 11.0
16 63.0 29.0
17 40.0 3.0
18 63.0 26.0
19 62.0 30.0
20 32.0 2.0
21 37.0 3.0
22 63.0 16.0
23 40.0 5.0
24 37.0 63.0
25 43.0 61.0
26 1.0 12.0
27 46.0 63.0
28 32.0 3.0
29 36.0 63.0
30 2.0 17.0
31 61.0 17.0
32 61.0 25.0
33 48.0 61.0
34 38.0 5.0
35 37.0 5.0
36 49.0 61.0
37 1.0 15.0
38 35.0 63.0
39 61.0 28.0
40 61.0 12.0
41 62.0 13.0
42 63.0 31.0
43 1.0 18.0
44 41.0 63.0
45 33.0 4.0
46 49.0 63.0
47 37.0 61.0
48 34.0 1.0
49 61.0 23.0
50 45.0 62.0
51 38.0 61.0
52 62.0 14.0
53 35.0 2.0
54 40.0 62.0
55 2.0 14.0
56 62.0 12.0
57 37.0 2.0
58 63.0 30.0
59 1.0 14.0
60 44.0 62.0
61 52.0 40.0
62 26.0 30.0
63 27.0 4.0
64 42.0 57.0
65 30.0 9.0
66 45.0 37.0
67 6.0 48.0
68 41.0 15.0
69 37.0 42.0
70 12.0 61.0
71 28.0 51.0
72 8.0 48.0
73 33.0 47.0
74 53.0 25.0
75 46.0 41.0
76 12.0 18.0
77 57.0 59.0
78 22.0 46.0
79 59.0 41.0
80 27.0 36.0
81 15.0 16.0
82 52.0 35.0
83 46.0 34.0
84 45.0 14.0
85 22.0 12.0
86 7.0 30.0
87 25.0 45.0
88 17.0 7.0
89 48.0 40.0
90 56.0 14.0
91 32.0 53.0
92 20.0 33.0
93 58.0 26.0
94 63.0 56.0
95 18.0 51.0
96 44.0 15.0
97 47.0 41.0
98 16.0 26.0
99 36.0 59.0
100 61.0 58.0
101 55.0 8.0
102 1.0 37.0
103 19.0 43.0
104 44.0 51.0
105 38.0 32.0
106 38.0 41.0
107 23.0 40.0
108 49.0 59.0
109 32.0 18.0
110 6.0 63.0
111 56.0 46.0
112 55.0 56.0
113 26.0 20.0
114 39.0 14.0
115 57.0 29.0
116 28.0 57.0
117 6.0 29.0
118 46.0 47.0
119 23.0 24.0
120 50.0 8.0
121 23.0 33.0
122 7.0 46.0
123 30.0 20.0
124 59.0 38.0
125 24.0 16.0
126 11.0 25.0
127 62.0 9.0
128 34.0 57.0
129 36.0 54.0
130 30.0 38.0
131 9.0 37.0
132 20.0 12.0
133 57.0 31.0
134 48.0 28.0
135 43.0 41.0
136 9.0 9.0
137 44.0 58.0
138 4.0 22.0
139 15.0 52.0
140 23.0 44.0
141 7.0 57.0
142 4.0 40.0
143 10.0 19.0
144 61.0 37.0
145 11.0 18.0
146 25.0 17.0
147 27.0 35.0
148 57.0 15.0
149 8.0 40.0
150 34.0 4.0
151 15.0 27.0
152 2.0 42.0
153 43.0 43.0
154 5.0 59.0
155 52.0 55.0
156 29.0 35.0
157 55.0 17.0
158 6.0 51.0
159 13.0 2.0
160 27.0 19.0
161 34.0 34.0
162 26.0 63.0
163 45.0 34.0
164 56.0 43.0
165 57.0 8.0
166 37.0 48.0
167 47.0 58.0
168 38.0 22.0
169 57.0 35.0
170 28.0 63.0
171 23.0 21.0
172 15.0 38.0
173 24.0 50.0
174 50.0 14.0
175 42.0 10.0
176 16.0 55.0
177 26.0 1.0
178 17.0 29.0
179 30.0 26.0
180 62.0 6.0
181 28.0 47.0
182 58.0 48.0
183 50.0 53.0
184 4.0 10.0
185 12.0 23.0
186 10.0 53.0
187 35.0 52.0
188 42.0 12.0
189 10.0 7.0
190 53.0 42.0
191 37.0 25.0
192 55.0 39.0
193 37.0 43.0
194 34.0 56.0
195 32.0 22.0
196 17.0 49.0
197 32.0 31.0
198 13.0 27.0
199 60.0 56.0
200 13.0 36.0
201 41.0 52.0
202 15.0 33.0
203 61.0 55.0
204 56.0 22.0
205 28.0 15.0
206 44.0 11.0
207 62.0 47.0
208 55.0 41.0
209 45.0 40.0
210 57.0 5.0
211 17.0 33.0
212 46.0 14.0
213 12.0 46.0
214 54.0 61.0
215 43.0 24.0
216 5.0 40.0
217 57.0 23.0
218 26.0 26.0
219 52.0 54.0
220 50.0 2.0
221 2.0 44.0
222 16.0 52.0
223 17.0 17.0
224 34.0 33.0
225 14.0 36.0
226 63.0 57.0
227 34.0 51.0
228 3.0 54.0
229 27.0 48.0
230 36.0 5.0
231 55.0 18.0
232 44.0 52.0
233 28.0 10.0
234 29.0 39.0
235 12.0 41.0
236 9.0 33.0
237 24.0 15.0
238 40.0 11.0
239 16.0 11.0
240 35.0 24.0
START_DEPOT_SECTION
1
2
3
4
5
6
7
8
9
10
11
12
13
14
15
16
17
18
19
20
21
22
23
24
25
26
27
28
29
30
-1
END_DEPOT_SECTION
31
32
33
34
35
36
37
38
39
40
41
42
43
44
45
46
47
48
49
50
51
52
53
54
55
56
57
58
59
60
-1
EOF
